% From JaCoP's nonogramRepository/data102.nin
 rows = 25;
 row_rule_len = 4;
 row_rules = array2d(1..rows, 1..row_rule_len, 
[
 0,6,1,1,
 0,9,2,2,
 3,4,3,3,
 0,2,4,1,
 0,6,6,3,
 0,6,4,2,
 0,0,10,1,
 0,0,0,14,
 0,0,3,10,
 0,0,3,11,
 0,0,2,12,
 0,0,2,13,
 0,0,3,15,
 0,0,0,20,
 0,0,0,20,
 0,0,0,20,
 0,0,0,20,
 0,0,0,20,
 0,0,0,18,
 0,0,0,18,
 0,0,0,18,
 0,0,0,16,
 0,0,0,14,
 0,0,0,10,
 0,0,0,6
]);

 cols = 30;
 col_rule_len = 2;
 col_rules = array2d(1..cols, 1..col_rule_len, 
[
 0,6,
 0,12,
 0,14,
 3,10,
 2,10,
 2,12,
 2,13,
 4,15,
 0,21,
 0,23,
 0,24,
 2,21,
 2,21,
 2,18,
 2,18,
 2,16,
 2,16,
 3,14,
 3,12,
 2,6,
 0,3,
 0,3,
 0,2,
 1,2,
 2,2,
 3,1,
 0,1,
 3,3,
 2,2,
 1,1
]);

